WARNING: for repeatability, setting FPU to use double precision
============================[ Problem Statistics ]=============================
|                                                                             |
|  Number of variables:         75079                                         |
|  Number of clauses:          229284                                         |
|  Parse time:                   0.07 s                                       |
|                                                                             |
c ============================[ Search Statistics ]==============================
c | Conflicts |          ORIGINAL         |          LEARNT          | Progress |
c |           |    Vars  Clauses Literals |    Limit  Clauses Lit/Cl |          |
c ===============================================================================
c Switched to VSIDS.
c Switched to LRB.
c Switched to VSIDS.
c Switched to LRB.
c Switched to VSIDS.
c Switched to LRB.
c Switched to VSIDS.
c Switched to LRB.
c Switched to VSIDS.
c Switched to LRB.
c Switched to VSIDS.
c Switched to LRB.
c Switched to VSIDS.
c Switched to LRB.
c Switched to VSIDS.
c Switched to LRB.
c Switched to VSIDS.
c Switched to LRB.
c Switched to VSIDS.
c Switched to LRB.
c Switched to VSIDS.
c Switched to LRB.
c Switched to VSIDS.
c Switched to LRB.
c Switched to VSIDS.
c Switched to LRB.
c Switched to VSIDS.
c Switched to LRB.
c Switched to VSIDS.
c Switched to LRB.
c Switched to VSIDS.
c Switched to LRB.
c Switched to VSIDS.
c Switched to LRB.
CAREFUL: the definition is falsified in conflict 13828768 at DL 434 (has happened 1 times)
c ===============================================================================
restarts                  : 63657
conflicts                 : 13833690       (3910 /sec)
decisions                 : 104979544      (0.00 % random) (29673 /sec)
propagations              : 8405383111     (2375845 /sec)
conflict literals         : 1031576486     (7.90 % deleted)

conflicts w/ DIP found    : 11758381       (85.00 % of conflicts)
conflicts w/ dangerous DIP: 1              (0.00 % of conflicts)
conflicts w/ DIP-learning : 185211         (1.34 % of conflicts)
decisions on ext vars     : 4816221        (4.59 % of decisions)
total ext vars            : 17965       
tried delete ext vars     : 0           
deleted ext vars          : 0           
max ext vars              : 17965       

Memory used               : 757.00 MB
CPU time                  : 3537.85 s
DIP computation time      : 106.155 s (3.00 % of total time)
ER_sel time               : 19.1102 s
ER_add time               : 0.088168 s
ER_delC time              : 0 s
ER_delV time              : 0 s
ER_sub time               : 23.6068 s
ER_stat time              : 0 s

INDETERMINATE
